119 48 011 1
1
862 113 1
742 114 1
644 115 1
661 116 1
666 117 1
771 118 1
682 119 1
736 108 1
678 109 1
677 110 1
723 111 1
820 112 1
662 113 1
980 114 1
672 115 1
700 116 1
790 117 1
642 118 1
588 119 1
636 108 1
684 109 1
729 110 1
653 111 1
680 112 1
886 113 1
675 114 1
593 115 1
675 116 1
758 117 1
966 118 1
831 119 1
866 108 1
751 109 1
724 110 1
703 111 1
604 112 1
665 113 1
560 114 1
737 115 1
567 116 1
802 117 1
652 118 1
764 119 1
677 108 1
992 109 1
833 110 1
778 111 1
723 112 1
1
1
1
1
1
1
1
1
1
1
1
1
1
1
1
1
1
1
1
1
1
1
1
1
1
1
1
1
1
1
1
1
1
1
1
1
1
1
1
1
1
1
1
1
1
1
1
1
1
1
1
1
1
1
1
1
1
1
1 9 735 21 635 33 865 45 676
1 10 677 22 683 34 750 46 991
1 11 676 23 728 35 723 47 832
1 12 722 24 652 36 702 48 777
1 13 819 25 679 37 603 49 722
1 2 861 14 661 26 885 38 664
1 3 741 15 979 27 674 39 559
1 4 643 16 671 28 592 40 736
1 5 660 17 699 29 674 41 566
1 6 665 18 789 30 757 42 801
1 7 770 19 641 31 965 43 651
1 8 681 20 587 32 830 44 763
